c nIsolatedPIs 8
c maxPI 22
p cnf 368 1039
c gate 23 1 21 0
1 -23 0
21 -23 0
-1 -21 23 0
c gate 24 1 20 0
1 -24 0
20 -24 0
-1 -20 24 0
c gate 25 3 18 0
3 -25 0
18 -25 0
-3 -18 25 0
c gate 26 2 19 0
2 -26 0
19 -26 0
-2 -19 26 0
c gate 27 25 26 0
25 -27 0
26 -27 0
-25 -26 27 0
c gate 28 -25 -26 0
-25 -28 0
-26 -28 0
25 26 28 0
c gate 29 -27 -28 0
-27 -29 0
-28 -29 0
27 28 29 0
c gate 30 24 29 0
24 -30 0
29 -30 0
-24 -29 30 0
c gate 31 -24 -29 0
-24 -31 0
-29 -31 0
24 29 31 0
c gate 32 -30 -31 0
-30 -32 0
-31 -32 0
30 31 32 0
c gate 33 5 15 0
5 -33 0
15 -33 0
-5 -15 33 0
c gate 34 4 16 0
4 -34 0
16 -34 0
-4 -16 34 0
c gate 35 33 34 0
33 -35 0
34 -35 0
-33 -34 35 0
c gate 36 3 17 0
3 -36 0
17 -36 0
-3 -17 36 0
c gate 37 -33 -34 0
-33 -37 0
-34 -37 0
33 34 37 0
c gate 38 -35 -37 0
-35 -38 0
-37 -38 0
35 37 38 0
c gate 39 36 38 0
36 -39 0
38 -39 0
-36 -38 39 0
c gate 40 -35 -39 0
-35 -40 0
-39 -40 0
35 39 40 0
c gate 41 32 -40 0
32 -41 0
-40 -41 0
-32 40 41 0
c gate 42 -32 40 0
-32 -42 0
40 -42 0
32 -40 42 0
c gate 43 -41 -42 0
-41 -43 0
-42 -43 0
41 42 43 0
c gate 44 2 18 0
2 -44 0
18 -44 0
-2 -18 44 0
c gate 45 1 19 0
1 -45 0
19 -45 0
-1 -19 45 0
c gate 46 44 45 0
44 -46 0
45 -46 0
-44 -45 46 0
c gate 47 43 46 0
43 -47 0
46 -47 0
-43 -46 47 0
c gate 48 -41 -47 0
-41 -48 0
-47 -48 0
41 47 48 0
c gate 49 23 -48 0
23 -49 0
-48 -49 0
-23 48 49 0
c gate 50 4 17 0
4 -50 0
17 -50 0
-4 -17 50 0
c gate 51 6 15 0
6 -51 0
15 -51 0
-6 -15 51 0
c gate 52 5 16 0
5 -52 0
16 -52 0
-5 -16 52 0
c gate 53 -51 -52 0
-51 -53 0
-52 -53 0
51 52 53 0
c gate 54 51 52 0
51 -54 0
52 -54 0
-51 -52 54 0
c gate 55 -53 -54 0
-53 -55 0
-54 -55 0
53 54 55 0
c gate 56 50 55 0
50 -56 0
55 -56 0
-50 -55 56 0
c gate 57 -50 -55 0
-50 -57 0
-55 -57 0
50 55 57 0
c gate 58 -56 -57 0
-56 -58 0
-57 -58 0
56 57 58 0
c gate 59 7 14 0
7 -59 0
14 -59 0
-7 -14 59 0
c gate 60 9 12 0
9 -60 0
12 -60 0
-9 -12 60 0
c gate 61 8 13 0
8 -61 0
13 -61 0
-8 -13 61 0
c gate 62 60 61 0
60 -62 0
61 -62 0
-60 -61 62 0
c gate 63 -60 -61 0
-60 -63 0
-61 -63 0
60 61 63 0
c gate 64 -62 -63 0
-62 -64 0
-63 -64 0
62 63 64 0
c gate 65 59 64 0
59 -65 0
64 -65 0
-59 -64 65 0
c gate 66 -59 -64 0
-59 -66 0
-64 -66 0
59 64 66 0
c gate 67 -65 -66 0
-65 -67 0
-66 -67 0
65 66 67 0
c gate 68 8 12 0
8 -68 0
12 -68 0
-8 -12 68 0
c gate 69 7 13 0
7 -69 0
13 -69 0
-7 -13 69 0
c gate 70 -68 -69 0
-68 -70 0
-69 -70 0
68 69 70 0
c gate 71 68 69 0
68 -71 0
69 -71 0
-68 -69 71 0
c gate 72 -70 -71 0
-70 -72 0
-71 -72 0
70 71 72 0
c gate 73 6 14 0
6 -73 0
14 -73 0
-6 -14 73 0
c gate 74 72 -73 0
72 -74 0
-73 -74 0
-72 73 74 0
c gate 75 -70 -74 0
-70 -75 0
-74 -75 0
70 74 75 0
c gate 76 67 75 0
67 -76 0
75 -76 0
-67 -75 76 0
c gate 77 -67 -75 0
-67 -77 0
-75 -77 0
67 75 77 0
c gate 78 -76 -77 0
-76 -78 0
-77 -78 0
76 77 78 0
c gate 79 58 78 0
58 -79 0
78 -79 0
-58 -78 79 0
c gate 80 -58 -78 0
-58 -80 0
-78 -80 0
58 78 80 0
c gate 81 -79 -80 0
-79 -81 0
-80 -81 0
79 80 81 0
c gate 82 7 12 0
7 -82 0
12 -82 0
-7 -12 82 0
c gate 83 6 13 0
6 -83 0
13 -83 0
-6 -13 83 0
c gate 84 82 83 0
82 -84 0
83 -84 0
-82 -83 84 0
c gate 85 5 14 0
5 -85 0
14 -85 0
-5 -14 85 0
c gate 86 -82 -83 0
-82 -86 0
-83 -86 0
82 83 86 0
c gate 87 -84 -86 0
-84 -87 0
-86 -87 0
84 86 87 0
c gate 88 85 87 0
85 -88 0
87 -88 0
-85 -87 88 0
c gate 89 -84 -88 0
-84 -89 0
-88 -89 0
84 88 89 0
c gate 90 -72 73 0
-72 -90 0
73 -90 0
72 -73 90 0
c gate 91 -74 -90 0
-74 -91 0
-90 -91 0
74 90 91 0
c gate 92 89 91 0
89 -92 0
91 -92 0
-89 -91 92 0
c gate 93 -89 -91 0
-89 -93 0
-91 -93 0
89 91 93 0
c gate 94 -92 -93 0
-92 -94 0
-93 -94 0
92 93 94 0
c gate 95 -36 -38 0
-36 -95 0
-38 -95 0
36 38 95 0
c gate 96 -39 -95 0
-39 -96 0
-95 -96 0
39 95 96 0
c gate 97 94 -96 0
94 -97 0
-96 -97 0
-94 96 97 0
c gate 98 -92 -97 0
-92 -98 0
-97 -98 0
92 97 98 0
c gate 99 81 98 0
81 -99 0
98 -99 0
-81 -98 99 0
c gate 100 -43 -46 0
-43 -100 0
-46 -100 0
43 46 100 0
c gate 101 -47 -100 0
-47 -101 0
-100 -101 0
47 100 101 0
c gate 102 -81 -98 0
-81 -102 0
-98 -102 0
81 98 102 0
c gate 103 -99 -102 0
-99 -103 0
-102 -103 0
99 102 103 0
c gate 104 101 103 0
101 -104 0
103 -104 0
-101 -103 104 0
c gate 105 -99 -104 0
-99 -105 0
-104 -105 0
99 104 105 0
c gate 106 -27 -30 0
-27 -106 0
-30 -106 0
27 30 106 0
c gate 107 2 20 0
2 -107 0
20 -107 0
-2 -20 107 0
c gate 108 4 18 0
4 -108 0
18 -108 0
-4 -18 108 0
c gate 109 3 19 0
3 -109 0
19 -109 0
-3 -19 109 0
c gate 110 108 109 0
108 -110 0
109 -110 0
-108 -109 110 0
c gate 111 -108 -109 0
-108 -111 0
-109 -111 0
108 109 111 0
c gate 112 -110 -111 0
-110 -112 0
-111 -112 0
110 111 112 0
c gate 113 107 112 0
107 -113 0
112 -113 0
-107 -112 113 0
c gate 114 -107 -112 0
-107 -114 0
-112 -114 0
107 112 114 0
c gate 115 -113 -114 0
-113 -115 0
-114 -115 0
113 114 115 0
c gate 116 -54 -56 0
-54 -116 0
-56 -116 0
54 56 116 0
c gate 117 115 -116 0
115 -117 0
-116 -117 0
-115 116 117 0
c gate 118 -115 116 0
-115 -118 0
116 -118 0
115 -116 118 0
c gate 119 -117 -118 0
-117 -119 0
-118 -119 0
117 118 119 0
c gate 120 -106 119 0
-106 -120 0
119 -120 0
106 -119 120 0
c gate 121 106 -119 0
106 -121 0
-119 -121 0
-106 119 121 0
c gate 122 -120 -121 0
-120 -122 0
-121 -122 0
120 121 122 0
c gate 123 -76 -79 0
-76 -123 0
-79 -123 0
76 79 123 0
c gate 124 5 17 0
5 -124 0
17 -124 0
-5 -17 124 0
c gate 125 7 15 0
7 -125 0
15 -125 0
-7 -15 125 0
c gate 126 6 16 0
6 -126 0
16 -126 0
-6 -16 126 0
c gate 127 -125 -126 0
-125 -127 0
-126 -127 0
125 126 127 0
c gate 128 125 126 0
125 -128 0
126 -128 0
-125 -126 128 0
c gate 129 -127 -128 0
-127 -129 0
-128 -129 0
127 128 129 0
c gate 130 124 129 0
124 -130 0
129 -130 0
-124 -129 130 0
c gate 131 -124 -129 0
-124 -131 0
-129 -131 0
124 129 131 0
c gate 132 -130 -131 0
-130 -132 0
-131 -132 0
130 131 132 0
c gate 133 -62 -65 0
-62 -133 0
-65 -133 0
62 65 133 0
c gate 134 8 14 0
8 -134 0
14 -134 0
-8 -14 134 0
c gate 135 10 12 0
10 -135 0
12 -135 0
-10 -12 135 0
c gate 136 9 13 0
9 -136 0
13 -136 0
-9 -13 136 0
c gate 137 135 136 0
135 -137 0
136 -137 0
-135 -136 137 0
c gate 138 -135 -136 0
-135 -138 0
-136 -138 0
135 136 138 0
c gate 139 -137 -138 0
-137 -139 0
-138 -139 0
137 138 139 0
c gate 140 134 139 0
134 -140 0
139 -140 0
-134 -139 140 0
c gate 141 -134 -139 0
-134 -141 0
-139 -141 0
134 139 141 0
c gate 142 -140 -141 0
-140 -142 0
-141 -142 0
140 141 142 0
c gate 143 -133 142 0
-133 -143 0
142 -143 0
133 -142 143 0
c gate 144 133 -142 0
133 -144 0
-142 -144 0
-133 142 144 0
c gate 145 -143 -144 0
-143 -145 0
-144 -145 0
143 144 145 0
c gate 146 132 145 0
132 -146 0
145 -146 0
-132 -145 146 0
c gate 147 -132 -145 0
-132 -147 0
-145 -147 0
132 145 147 0
c gate 148 -146 -147 0
-146 -148 0
-147 -148 0
146 147 148 0
c gate 149 -123 148 0
-123 -149 0
148 -149 0
123 -148 149 0
c gate 150 123 -148 0
123 -150 0
-148 -150 0
-123 148 150 0
c gate 151 -149 -150 0
-149 -151 0
-150 -151 0
149 150 151 0
c gate 152 122 151 0
122 -152 0
151 -152 0
-122 -151 152 0
c gate 153 -122 -151 0
-122 -153 0
-151 -153 0
122 151 153 0
c gate 154 -152 -153 0
-152 -154 0
-153 -154 0
152 153 154 0
c gate 155 -105 154 0
-105 -155 0
154 -155 0
105 -154 155 0
c gate 156 -23 48 0
-23 -156 0
48 -156 0
23 -48 156 0
c gate 157 -49 -156 0
-49 -157 0
-156 -157 0
49 156 157 0
c gate 158 105 -154 0
105 -158 0
-154 -158 0
-105 154 158 0
c gate 159 -155 -158 0
-155 -159 0
-158 -159 0
155 158 159 0
c gate 160 157 159 0
157 -160 0
159 -160 0
-157 -159 160 0
c gate 161 -155 -160 0
-155 -161 0
-160 -161 0
155 160 161 0
c gate 162 2 21 0
2 -162 0
21 -162 0
-2 -21 162 0
c gate 163 1 22 0
1 -163 0
22 -163 0
-1 -22 163 0
c gate 164 162 163 0
162 -164 0
163 -164 0
-162 -163 164 0
c gate 165 -162 -163 0
-162 -165 0
-163 -165 0
162 163 165 0
c gate 166 -164 -165 0
-164 -166 0
-165 -166 0
164 165 166 0
c gate 167 -117 -120 0
-117 -167 0
-120 -167 0
117 120 167 0
c gate 168 166 -167 0
166 -168 0
-167 -168 0
-166 167 168 0
c gate 169 -166 167 0
-166 -169 0
167 -169 0
166 -167 169 0
c gate 170 -168 -169 0
-168 -170 0
-169 -170 0
168 169 170 0
c gate 171 -149 -152 0
-149 -171 0
-152 -171 0
149 152 171 0
c gate 172 -110 -113 0
-110 -172 0
-113 -172 0
110 113 172 0
c gate 173 3 20 0
3 -173 0
20 -173 0
-3 -20 173 0
c gate 174 5 18 0
5 -174 0
18 -174 0
-5 -18 174 0
c gate 175 4 19 0
4 -175 0
19 -175 0
-4 -19 175 0
c gate 176 174 175 0
174 -176 0
175 -176 0
-174 -175 176 0
c gate 177 -174 -175 0
-174 -177 0
-175 -177 0
174 175 177 0
c gate 178 -176 -177 0
-176 -178 0
-177 -178 0
176 177 178 0
c gate 179 173 178 0
173 -179 0
178 -179 0
-173 -178 179 0
c gate 180 -173 -178 0
-173 -180 0
-178 -180 0
173 178 180 0
c gate 181 -179 -180 0
-179 -181 0
-180 -181 0
179 180 181 0
c gate 182 -128 -130 0
-128 -182 0
-130 -182 0
128 130 182 0
c gate 183 181 -182 0
181 -183 0
-182 -183 0
-181 182 183 0
c gate 184 -181 182 0
-181 -184 0
182 -184 0
181 -182 184 0
c gate 185 -183 -184 0
-183 -185 0
-184 -185 0
183 184 185 0
c gate 186 -172 185 0
-172 -186 0
185 -186 0
172 -185 186 0
c gate 187 172 -185 0
172 -187 0
-185 -187 0
-172 185 187 0
c gate 188 -186 -187 0
-186 -188 0
-187 -188 0
186 187 188 0
c gate 189 -143 -146 0
-143 -189 0
-146 -189 0
143 146 189 0
c gate 190 6 17 0
6 -190 0
17 -190 0
-6 -17 190 0
c gate 191 8 15 0
8 -191 0
15 -191 0
-8 -15 191 0
c gate 192 7 16 0
7 -192 0
16 -192 0
-7 -16 192 0
c gate 193 -191 -192 0
-191 -193 0
-192 -193 0
191 192 193 0
c gate 194 191 192 0
191 -194 0
192 -194 0
-191 -192 194 0
c gate 195 -193 -194 0
-193 -195 0
-194 -195 0
193 194 195 0
c gate 196 -190 -195 0
-190 -196 0
-195 -196 0
190 195 196 0
c gate 197 190 195 0
190 -197 0
195 -197 0
-190 -195 197 0
c gate 198 -196 -197 0
-196 -198 0
-197 -198 0
196 197 198 0
c gate 199 -137 -140 0
-137 -199 0
-140 -199 0
137 140 199 0
c gate 200 9 14 0
9 -200 0
14 -200 0
-9 -14 200 0
c gate 201 11 12 0
11 -201 0
12 -201 0
-11 -12 201 0
c gate 202 10 13 0
10 -202 0
13 -202 0
-10 -13 202 0
c gate 203 201 202 0
201 -203 0
202 -203 0
-201 -202 203 0
c gate 204 -201 -202 0
-201 -204 0
-202 -204 0
201 202 204 0
c gate 205 -203 -204 0
-203 -205 0
-204 -205 0
203 204 205 0
c gate 206 200 205 0
200 -206 0
205 -206 0
-200 -205 206 0
c gate 207 -200 -205 0
-200 -207 0
-205 -207 0
200 205 207 0
c gate 208 -206 -207 0
-206 -208 0
-207 -208 0
206 207 208 0
c gate 209 -199 208 0
-199 -209 0
208 -209 0
199 -208 209 0
c gate 210 199 -208 0
199 -210 0
-208 -210 0
-199 208 210 0
c gate 211 -209 -210 0
-209 -211 0
-210 -211 0
209 210 211 0
c gate 212 198 211 0
198 -212 0
211 -212 0
-198 -211 212 0
c gate 213 -198 -211 0
-198 -213 0
-211 -213 0
198 211 213 0
c gate 214 -212 -213 0
-212 -214 0
-213 -214 0
212 213 214 0
c gate 215 -189 214 0
-189 -215 0
214 -215 0
189 -214 215 0
c gate 216 189 -214 0
189 -216 0
-214 -216 0
-189 214 216 0
c gate 217 -215 -216 0
-215 -217 0
-216 -217 0
215 216 217 0
c gate 218 188 217 0
188 -218 0
217 -218 0
-188 -217 218 0
c gate 219 -188 -217 0
-188 -219 0
-217 -219 0
188 217 219 0
c gate 220 -218 -219 0
-218 -220 0
-219 -220 0
218 219 220 0
c gate 221 -171 220 0
-171 -221 0
220 -221 0
171 -220 221 0
c gate 222 171 -220 0
171 -222 0
-220 -222 0
-171 220 222 0
c gate 223 -221 -222 0
-221 -223 0
-222 -223 0
221 222 223 0
c gate 224 170 223 0
170 -224 0
223 -224 0
-170 -223 224 0
c gate 225 -170 -223 0
-170 -225 0
-223 -225 0
170 223 225 0
c gate 226 -224 -225 0
-224 -226 0
-225 -226 0
224 225 226 0
c gate 227 -161 226 0
-161 -227 0
226 -227 0
161 -226 227 0
c gate 228 161 -226 0
161 -228 0
-226 -228 0
-161 226 228 0
c gate 229 -227 -228 0
-227 -229 0
-228 -229 0
227 228 229 0
c gate 230 49 229 0
49 -230 0
229 -230 0
-49 -229 230 0
c gate 231 -49 -229 0
-49 -231 0
-229 -231 0
49 229 231 0
c gate 232 -230 -231 0
-230 -232 0
-231 -232 0
230 231 232 0
c gate 233 -101 -103 0
-101 -233 0
-103 -233 0
101 103 233 0
c gate 234 -104 -233 0
-104 -234 0
-233 -234 0
104 233 234 0
c gate 235 5 13 0
5 -235 0
13 -235 0
-5 -13 235 0
c gate 236 6 12 0
6 -236 0
12 -236 0
-6 -12 236 0
c gate 237 235 236 0
235 -237 0
236 -237 0
-235 -236 237 0
c gate 238 4 14 0
4 -238 0
14 -238 0
-4 -14 238 0
c gate 239 -235 -236 0
-235 -239 0
-236 -239 0
235 236 239 0
c gate 240 -237 -239 0
-237 -240 0
-239 -240 0
237 239 240 0
c gate 241 238 240 0
238 -241 0
240 -241 0
-238 -240 241 0
c gate 242 -237 -241 0
-237 -242 0
-241 -242 0
237 241 242 0
c gate 243 -85 -87 0
-85 -243 0
-87 -243 0
85 87 243 0
c gate 244 -88 -243 0
-88 -244 0
-243 -244 0
88 243 244 0
c gate 245 -242 244 0
-242 -245 0
244 -245 0
242 -244 245 0
c gate 246 2 17 0
2 -246 0
17 -246 0
-2 -17 246 0
c gate 247 4 15 0
4 -247 0
15 -247 0
-4 -15 247 0
c gate 248 3 16 0
3 -248 0
16 -248 0
-3 -16 248 0
c gate 249 -247 -248 0
-247 -249 0
-248 -249 0
247 248 249 0
c gate 250 247 248 0
247 -250 0
248 -250 0
-247 -248 250 0
c gate 251 -249 -250 0
-249 -251 0
-250 -251 0
249 250 251 0
c gate 252 246 251 0
246 -252 0
251 -252 0
-246 -251 252 0
c gate 253 -246 -251 0
-246 -253 0
-251 -253 0
246 251 253 0
c gate 254 -252 -253 0
-252 -254 0
-253 -254 0
252 253 254 0
c gate 255 242 -244 0
242 -255 0
-244 -255 0
-242 244 255 0
c gate 256 -245 -255 0
-245 -256 0
-255 -256 0
245 255 256 0
c gate 257 254 256 0
254 -257 0
256 -257 0
-254 -256 257 0
c gate 258 -245 -257 0
-245 -258 0
-257 -258 0
245 257 258 0
c gate 259 -94 96 0
-94 -259 0
96 -259 0
94 -96 259 0
c gate 260 -97 -259 0
-97 -260 0
-259 -260 0
97 259 260 0
c gate 261 258 260 0
258 -261 0
260 -261 0
-258 -260 261 0
c gate 262 -258 -260 0
-258 -262 0
-260 -262 0
258 260 262 0
c gate 263 -261 -262 0
-261 -263 0
-262 -263 0
261 262 263 0
c gate 264 -44 -45 0
-44 -264 0
-45 -264 0
44 45 264 0
c gate 265 -46 -264 0
-46 -265 0
-264 -265 0
46 264 265 0
c gate 266 -250 -252 0
-250 -266 0
-252 -266 0
250 252 266 0
c gate 267 265 -266 0
265 -267 0
-266 -267 0
-265 266 267 0
c gate 268 -265 266 0
-265 -268 0
266 -268 0
265 -266 268 0
c gate 269 -267 -268 0
-267 -269 0
-268 -269 0
267 268 269 0
c gate 270 263 -269 0
263 -270 0
-269 -270 0
-263 269 270 0
c gate 271 -261 -270 0
-261 -271 0
-270 -271 0
261 270 271 0
c gate 272 234 271 0
234 -272 0
271 -272 0
-234 -271 272 0
c gate 273 -234 -271 0
-234 -273 0
-271 -273 0
234 271 273 0
c gate 274 -272 -273 0
-272 -274 0
-273 -274 0
272 273 274 0
c gate 275 267 274 0
267 -275 0
274 -275 0
-267 -274 275 0
c gate 276 -272 -275 0
-272 -276 0
-275 -276 0
272 275 276 0
c gate 277 -157 -159 0
-157 -277 0
-159 -277 0
157 159 277 0
c gate 278 -160 -277 0
-160 -278 0
-277 -278 0
160 277 278 0
c gate 279 276 -278 0
276 -279 0
-278 -279 0
-276 278 279 0
c gate 280 -276 278 0
-276 -280 0
278 -280 0
276 -278 280 0
c gate 281 4 13 0
4 -281 0
13 -281 0
-4 -13 281 0
c gate 282 5 12 0
5 -282 0
12 -282 0
-5 -12 282 0
c gate 283 281 282 0
281 -283 0
282 -283 0
-281 -282 283 0
c gate 284 3 14 0
3 -284 0
14 -284 0
-3 -14 284 0
c gate 285 -281 -282 0
-281 -285 0
-282 -285 0
281 282 285 0
c gate 286 -283 -285 0
-283 -286 0
-285 -286 0
283 285 286 0
c gate 287 284 286 0
284 -287 0
286 -287 0
-284 -286 287 0
c gate 288 -283 -287 0
-283 -288 0
-287 -288 0
283 287 288 0
c gate 289 -238 -240 0
-238 -289 0
-240 -289 0
238 240 289 0
c gate 290 -241 -289 0
-241 -290 0
-289 -290 0
241 289 290 0
c gate 291 -288 290 0
-288 -291 0
290 -291 0
288 -290 291 0
c gate 292 1 17 0
1 -292 0
17 -292 0
-1 -17 292 0
c gate 293 2 16 0
2 -293 0
16 -293 0
-2 -16 293 0
c gate 294 3 15 0
3 -294 0
15 -294 0
-3 -15 294 0
c gate 295 -293 -294 0
-293 -295 0
-294 -295 0
293 294 295 0
c gate 296 293 294 0
293 -296 0
294 -296 0
-293 -294 296 0
c gate 297 -295 -296 0
-295 -297 0
-296 -297 0
295 296 297 0
c gate 298 292 297 0
292 -298 0
297 -298 0
-292 -297 298 0
c gate 299 -292 -297 0
-292 -299 0
-297 -299 0
292 297 299 0
c gate 300 -298 -299 0
-298 -300 0
-299 -300 0
298 299 300 0
c gate 301 288 -290 0
288 -301 0
-290 -301 0
-288 290 301 0
c gate 302 -291 -301 0
-291 -302 0
-301 -302 0
291 301 302 0
c gate 303 300 302 0
300 -303 0
302 -303 0
-300 -302 303 0
c gate 304 -291 -303 0
-291 -304 0
-303 -304 0
291 303 304 0
c gate 305 -254 -256 0
-254 -305 0
-256 -305 0
254 256 305 0
c gate 306 -257 -305 0
-257 -306 0
-305 -306 0
257 305 306 0
c gate 307 -304 306 0
-304 -307 0
306 -307 0
304 -306 307 0
c gate 308 1 18 0
1 -308 0
18 -308 0
-1 -18 308 0
c gate 309 -296 -298 0
-296 -309 0
-298 -309 0
296 298 309 0
c gate 310 308 -309 0
308 -310 0
-309 -310 0
-308 309 310 0
c gate 311 -308 309 0
-308 -311 0
309 -311 0
308 -309 311 0
c gate 312 -310 -311 0
-310 -312 0
-311 -312 0
310 311 312 0
c gate 313 304 -306 0
304 -313 0
-306 -313 0
-304 306 313 0
c gate 314 -307 -313 0
-307 -314 0
-313 -314 0
307 313 314 0
c gate 315 312 314 0
312 -315 0
314 -315 0
-312 -314 315 0
c gate 316 -307 -315 0
-307 -316 0
-315 -316 0
307 315 316 0
c gate 317 -263 269 0
-263 -317 0
269 -317 0
263 -269 317 0
c gate 318 -270 -317 0
-270 -318 0
-317 -318 0
270 317 318 0
c gate 319 -316 -318 0
-316 -319 0
-318 -319 0
316 318 319 0
c gate 320 316 318 0
316 -320 0
318 -320 0
-316 -318 320 0
c gate 321 -319 -320 0
-319 -321 0
-320 -321 0
319 320 321 0
c gate 322 310 321 0
310 -322 0
321 -322 0
-310 -321 322 0
c gate 323 -319 -322 0
-319 -323 0
-322 -323 0
319 322 323 0
c gate 324 -267 -274 0
-267 -324 0
-274 -324 0
267 274 324 0
c gate 325 -275 -324 0
-275 -325 0
-324 -325 0
275 324 325 0
c gate 326 -323 325 0
-323 -326 0
325 -326 0
323 -325 326 0
c gate 327 -280 -326 0
-280 -327 0
-326 -327 0
280 326 327 0
c gate 328 -279 -327 0
-279 -328 0
-327 -328 0
279 327 328 0
c gate 329 -232 -328 0
-232 -329 0
-328 -329 0
232 328 329 0
c gate 330 -279 -280 0
-279 -330 0
-280 -330 0
279 280 330 0
c gate 331 3 13 0
3 -331 0
13 -331 0
-3 -13 331 0
c gate 332 4 12 0
4 -332 0
12 -332 0
-4 -12 332 0
c gate 333 331 332 0
331 -333 0
332 -333 0
-331 -332 333 0
c gate 334 2 14 0
2 -334 0
14 -334 0
-2 -14 334 0
c gate 335 -331 -332 0
-331 -335 0
-332 -335 0
331 332 335 0
c gate 336 -333 -335 0
-333 -336 0
-335 -336 0
333 335 336 0
c gate 337 334 336 0
334 -337 0
336 -337 0
-334 -336 337 0
c gate 338 -333 -337 0
-333 -338 0
-337 -338 0
333 337 338 0
c gate 339 -284 -286 0
-284 -339 0
-286 -339 0
284 286 339 0
c gate 340 -287 -339 0
-287 -340 0
-339 -340 0
287 339 340 0
c gate 341 -338 340 0
-338 -341 0
340 -341 0
338 -340 341 0
c gate 342 1 16 0
1 -342 0
16 -342 0
-1 -16 342 0
c gate 343 2 15 0
2 -343 0
15 -343 0
-2 -15 343 0
c gate 344 -342 -343 0
-342 -344 0
-343 -344 0
342 343 344 0
c gate 345 342 343 0
342 -345 0
343 -345 0
-342 -343 345 0
c gate 346 -344 -345 0
-344 -346 0
-345 -346 0
344 345 346 0
c gate 347 338 -340 0
338 -347 0
-340 -347 0
-338 340 347 0
c gate 348 -341 -347 0
-341 -348 0
-347 -348 0
341 347 348 0
c gate 349 346 348 0
346 -349 0
348 -349 0
-346 -348 349 0
c gate 350 -341 -349 0
-341 -350 0
-349 -350 0
341 349 350 0
c gate 351 -300 -302 0
-300 -351 0
-302 -351 0
300 302 351 0
c gate 352 -303 -351 0
-303 -352 0
-351 -352 0
303 351 352 0
c gate 353 -350 352 0
-350 -353 0
352 -353 0
350 -352 353 0
c gate 354 350 -352 0
350 -354 0
-352 -354 0
-350 352 354 0
c gate 355 -353 -354 0
-353 -355 0
-354 -355 0
353 354 355 0
c gate 356 345 355 0
345 -356 0
355 -356 0
-345 -355 356 0
c gate 357 -353 -356 0
-353 -357 0
-356 -357 0
353 356 357 0
c gate 358 -312 -314 0
-312 -358 0
-314 -358 0
312 314 358 0
c gate 359 -315 -358 0
-315 -359 0
-358 -359 0
315 358 359 0
c gate 360 -357 359 0
-357 -360 0
359 -360 0
357 -359 360 0
c gate 361 -310 -321 0
-310 -361 0
-321 -361 0
310 321 361 0
c gate 362 -322 -361 0
-322 -362 0
-361 -362 0
322 361 362 0
c gate 363 360 362 0
360 -363 0
362 -363 0
-360 -362 363 0
c gate 364 323 -325 0
323 -364 0
-325 -364 0
-323 325 364 0
c gate 365 -326 -364 0
-326 -365 0
-364 -365 0
326 364 365 0
c gate 366 363 365 0
363 -366 0
365 -366 0
-363 -365 366 0
c gate 367 330 366 0
330 -367 0
366 -367 0
-330 -366 367 0
c gate 368 -329 367 0
-329 -368 0
367 -368 0
329 -367 368 0
c PO
368 0
